NAME 
ROWS
 N  OBJ
 G  C1      
 G  C2      
COLUMNS
    X[1]      C1        -1
    X[2]      C2        -1
    Y[1]      OBJ       -16
    Y[1]      C1        -2
    Y[1]      C2        -6
    Y[2]      OBJ       -19
    Y[2]      C1        -3
    Y[2]      C2        -1
    Y[3]      OBJ       -23
    Y[3]      C1        -4
    Y[3]      C2        -3
    Y[4]      OBJ       -28
    Y[4]      C1        -5
    Y[4]      C2        -2
    R         OBJ       100
    R         C1        1
    R         C2        1
RHS
    RHS1      C1        -10
    RHS1      C2        -3
BOUNDS
 UP BND1      X[1]      1
 UP BND1      X[2]      1
 UP BND1      Y[1]      1
 UP BND1      Y[2]      1
 UP BND1      Y[3]      1
 UP BND1      Y[4]      1
ENDATA
